DATASET = "thpack4";
INSTANCE = "049";

WIDTH = 233;
HEIGHT = 220;
LENGTH = 587;

NO_OF_SHAPES = 10;
size = [|
  91,54,45 |
  105,77,72 |
  79,78,48 |
  109,76,59 |
  48,37,30 |
  44,37,27 |
  79,76,54 |
  116,78,20 |
  101,71,49 |
  102,100,49 |
|];

verticality = [|
  0,1,1 |
  1,1,1 |
  1,1,1 |
  1,1,1 |
  1,1,1 |
  1,1,1 |
  1,1,1 |
  0,0,1 |
  0,1,1 |
  0,0,1 |
|];

box_count = [
  13,
  8,
  14,
  5,
  11,
  12,
  6,
  12,
  15,
  10,
];
